DIMACS_lns/graph-1000-205.col
p edge 1000 1827
e 1 169
e 1 932
e 1 497
e 1 129
e 2 817
e 2 221
e 2 44
e 2 339
e 2 177
e 2 972
e 3 869
e 3 906
e 3 452
e 4 441
e 4 358
e 4 681
e 4 165
e 4 274
e 5 823
e 5 476
e 5 366
e 5 597
e 5 54
e 5 696
e 5 930
e 5 426
e 7 712
e 7 821
e 7 290
e 7 781
e 7 487
e 7 571
e 7 201
e 8 969
e 8 789
e 8 808
e 9 249
e 9 518
e 9 726
e 9 327
e 10 239
e 10 709
e 10 862
e 10 480
e 10 571
e 11 580
e 11 721
e 11 710
e 11 846
e 12 177
e 12 530
e 12 25
e 13 950
e 13 544
e 13 403
e 14 894
e 14 930
e 14 319
e 14 784
e 14 285
e 14 367
e 14 154
e 16 140
e 16 146
e 16 34
e 16 258
e 17 270
e 17 937
e 17 39
e 17 293
e 17 464
e 17 958
e 18 328
e 18 204
e 18 842
e 19 174
e 19 722
e 19 158
e 19 630
e 19 594
e 20 95
e 20 292
e 20 638
e 20 316
e 20 93
e 20 592
e 20 82
e 20 430
e 20 908
e 22 623
e 22 809
e 22 197
e 23 718
e 23 877
e 23 279
e 23 1000
e 24 683
e 24 1000
e 24 328
e 25 184
e 25 414
e 25 138
e 25 230
e 25 319
e 26 375
e 26 582
e 26 728
e 28 977
e 28 468
e 28 340
e 28 623
e 28 384
e 28 366
e 29 730
e 29 757
e 29 248
e 29 447
e 30 345
e 30 637
e 30 78
e 30 132
e 30 735
e 30 843
e 32 295
e 32 260
e 32 379
e 32 157
e 33 760
e 33 759
e 33 518
e 33 730
e 34 344
e 34 984
e 34 319
e 35 357
e 35 934
e 35 617
e 35 373
e 35 463
e 36 612
e 36 614
e 36 645
e 36 825
e 36 968
e 36 129
e 36 273
e 36 749
e 37 568
e 37 417
e 37 421
e 37 621
e 37 647
e 37 775
e 38 766
e 38 214
e 38 426
e 39 520
e 39 195
e 39 868
e 40 304
e 40 67
e 40 406
e 41 349
e 41 997
e 41 703
e 42 840
e 42 742
e 42 674
e 44 917
e 44 51
e 44 722
e 44 145
e 46 753
e 46 74
e 46 532
e 46 809
e 47 277
e 47 190
e 47 755
e 47 598
e 47 673
e 47 572
e 47 228
e 47 513
e 48 918
e 48 523
e 48 56
e 48 852
e 49 955
e 49 984
e 49 903
e 49 305
e 50 227
e 50 99
e 50 681
e 50 270
e 50 771
e 51 184
e 51 613
e 51 897
e 51 125
e 51 618
e 51 426
e 53 535
e 53 342
e 53 176
e 53 650
e 53 652
e 53 803
e 54 762
e 54 817
e 54 992
e 54 144
e 54 947
e 54 150
e 55 383
e 55 63
e 55 105
e 55 680
e 56 494
e 56 533
e 56 797
e 56 453
e 56 955
e 58 927
e 58 302
e 58 501
e 58 243
e 58 373
e 58 743
e 58 801
e 59 954
e 59 182
e 59 196
e 59 842
e 60 441
e 60 259
e 60 734
e 60 935
e 60 687
e 61 181
e 61 132
e 61 718
e 61 489
e 62 918
e 62 580
e 62 486
e 62 963
e 62 922
e 63 951
e 63 717
e 64 705
e 64 650
e 64 489
e 66 705
e 66 339
e 66 556
e 67 522
e 67 468
e 68 975
e 68 592
e 68 177
e 68 860
e 68 144
e 68 474
e 69 470
e 69 648
e 69 459
e 70 230
e 70 719
e 70 924
e 70 227
e 70 688
e 71 578
e 71 552
e 71 748
e 71 765
e 71 719
e 71 652
e 73 110
e 73 501
e 73 891
e 74 959
e 74 574
e 76 381
e 76 567
e 76 848
e 77 258
e 77 94
e 77 450
e 77 828
e 77 892
e 77 325
e 77 579
e 77 268
e 77 966
e 78 300
e 78 441
e 80 452
e 80 722
e 80 463
e 80 164
e 80 771
e 81 488
e 81 480
e 81 545
e 81 468
e 81 908
e 82 114
e 82 312
e 82 355
e 82 381
e 83 993
e 83 150
e 83 248
e 83 797
e 83 583
e 83 994
e 85 963
e 85 823
e 85 774
e 85 529
e 86 480
e 86 219
e 86 477
e 86 817
e 88 499
e 88 565
e 88 511
e 88 446
e 89 876
e 89 496
e 89 619
e 90 270
e 90 696
e 90 147
e 90 366
e 90 774
e 90 867
e 92 263
e 92 432
e 92 596
e 93 310
e 93 402
e 93 749
e 94 743
e 94 844
e 94 446
e 94 816
e 95 814
e 95 710
e 95 799
e 96 159
e 96 815
e 96 283
e 97 117
e 97 549
e 97 632
e 97 245
e 97 643
e 98 316
e 98 232
e 98 142
e 99 169
e 99 691
e 99 363
e 99 597
e 100 275
e 100 509
e 100 369
e 100 127
e 101 837
e 101 882
e 101 818
e 101 613
e 102 691
e 102 487
e 102 361
e 104 147
e 104 970
e 104 848
e 104 799
e 104 660
e 104 384
e 105 256
e 105 524
e 105 295
e 105 953
e 105 568
e 105 797
e 106 801
e 106 690
e 106 667
e 106 502
e 108 507
e 108 462
e 108 401
e 108 858
e 108 377
e 108 195
e 108 298
e 109 316
e 109 734
e 109 730
e 109 169
e 109 797
e 109 237
e 110 445
e 110 877
e 110 562
e 110 298
e 110 221
e 111 447
e 111 214
e 111 275
e 111 389
e 111 563
e 111 722
e 112 148
e 112 554
e 112 646
e 112 992
e 112 749
e 113 631
e 113 880
e 113 681
e 113 312
e 113 320
e 114 289
e 114 929
e 114 411
e 114 640
e 114 324
e 115 965
e 115 725
e 115 574
e 117 708
e 117 321
e 117 771
e 117 716
e 117 510
e 117 941
e 117 802
e 118 293
e 118 710
e 118 235
e 118 225
e 121 177
e 121 455
e 121 1000
e 121 433
e 122 325
e 122 944
e 122 293
e 122 169
e 122 937
e 125 976
e 125 977
e 125 150
e 125 391
e 127 792
e 127 928
e 127 655
e 127 883
e 127 522
e 127 628
e 128 719
e 128 934
e 128 474
e 128 968
e 128 738
e 129 397
e 129 414
e 130 943
e 130 697
e 130 482
e 130 544
e 130 387
e 131 825
e 131 208
e 131 562
e 131 831
e 131 538
e 132 806
e 132 279
e 132 420
e 136 735
e 136 644
e 136 445
e 137 499
e 137 457
e 137 300
e 137 773
e 137 593
e 137 277
e 138 643
e 138 711
e 138 772
e 139 791
e 139 344
e 139 814
e 139 342
e 139 701
e 140 181
e 140 839
e 140 902
e 140 234
e 140 343
e 141 517
e 141 568
e 141 328
e 142 869
e 142 420
e 144 823
e 144 457
e 144 818
e 144 888
e 144 908
e 145 153
e 145 302
e 145 329
e 146 961
e 146 277
e 146 372
e 146 459
e 146 747
e 147 959
e 147 865
e 148 742
e 148 513
e 148 929
e 150 482
e 150 771
e 151 208
e 151 961
e 151 303
e 151 450
e 152 660
e 152 249
e 152 857
e 152 709
e 152 868
e 152 757
e 153 810
e 153 441
e 154 691
e 154 765
e 154 349
e 156 287
e 156 417
e 156 837
e 157 293
e 157 204
e 157 242
e 157 345
e 158 600
e 158 701
e 159 557
e 159 747
e 161 472
e 161 737
e 161 450
e 161 664
e 161 628
e 161 670
e 161 649
e 162 183
e 162 286
e 162 872
e 163 700
e 163 240
e 163 205
e 163 527
e 164 339
e 164 307
e 165 635
e 165 482
e 165 945
e 165 574
e 165 487
e 165 918
e 166 989
e 166 697
e 166 537
e 166 277
e 169 663
e 169 575
e 169 228
e 171 562
e 171 351
e 171 759
e 171 871
e 173 426
e 173 432
e 173 874
e 174 685
e 174 872
e 175 376
e 175 402
e 175 883
e 175 379
e 176 763
e 176 235
e 176 406
e 176 923
e 176 734
e 177 810
e 177 665
e 177 638
e 177 944
e 178 968
e 178 444
e 178 184
e 178 284
e 179 656
e 179 833
e 179 975
e 180 812
e 180 389
e 180 305
e 181 725
e 182 643
e 182 803
e 182 487
e 183 693
e 183 441
e 183 700
e 184 235
e 184 246
e 184 588
e 185 221
e 185 902
e 185 429
e 188 221
e 188 990
e 188 208
e 188 651
e 188 939
e 189 533
e 189 908
e 189 769
e 190 868
e 190 308
e 190 902
e 190 833
e 190 395
e 190 278
e 191 375
e 191 551
e 191 417
e 191 827
e 191 933
e 191 563
e 193 533
e 193 773
e 193 705
e 193 866
e 194 466
e 194 853
e 194 505
e 195 687
e 195 430
e 196 517
e 196 388
e 196 242
e 197 230
e 197 671
e 197 716
e 201 953
e 201 244
e 203 692
e 203 762
e 203 742
e 203 253
e 204 646
e 204 914
e 204 388
e 204 827
e 204 734
e 204 502
e 205 867
e 205 446
e 205 855
e 205 919
e 205 853
e 205 831
e 205 825
e 207 213
e 207 594
e 207 234
e 207 450
e 208 375
e 208 942
e 209 259
e 209 287
e 209 434
e 209 562
e 209 430
e 209 574
e 209 646
e 209 511
e 210 477
e 210 377
e 210 966
e 211 747
e 211 260
e 211 754
e 213 565
e 213 896
e 214 482
e 214 340
e 214 937
e 214 392
e 216 563
e 216 567
e 216 928
e 217 827
e 217 693
e 217 722
e 219 326
e 219 571
e 219 251
e 219 959
e 219 438
e 219 920
e 220 313
e 220 576
e 220 454
e 220 728
e 220 497
e 220 515
e 221 918
e 221 482
e 221 463
e 221 880
e 222 799
e 222 460
e 222 305
e 222 814
e 222 842
e 224 567
e 224 323
e 224 531
e 225 277
e 225 763
e 225 300
e 226 417
e 226 823
e 226 450
e 226 268
e 226 937
e 227 889
e 227 325
e 227 357
e 228 307
e 228 480
e 228 824
e 228 445
e 230 249
e 230 635
e 230 590
e 230 772
e 232 958
e 232 488
e 232 359
e 232 867
e 232 240
e 234 735
e 234 614
e 234 650
e 234 772
e 234 284
e 235 967
e 235 523
e 235 243
e 235 537
e 235 298
e 237 470
e 237 465
e 237 725
e 237 815
e 239 700
e 239 491
e 239 327
e 239 810
e 240 394
e 240 617
e 240 665
e 240 392
e 241 779
e 241 326
e 241 658
e 241 635
e 242 894
e 242 891
e 242 283
e 243 492
e 243 945
e 244 947
e 244 366
e 244 491
e 245 799
e 245 496
e 245 323
e 245 485
e 245 491
e 246 410
e 246 955
e 246 325
e 247 598
e 247 284
e 247 260
e 248 480
e 248 313
e 248 430
e 248 455
e 248 351
e 248 918
e 251 492
e 251 434
e 251 507
e 251 274
e 252 641
e 252 526
e 252 548
e 253 815
e 253 754
e 254 565
e 254 764
e 254 928
e 256 902
e 256 631
e 256 480
e 256 913
e 256 572
e 256 459
e 258 518
e 258 568
e 259 749
e 259 437
e 259 605
e 259 300
e 260 982
e 260 370
e 260 404
e 260 835
e 261 630
e 261 732
e 261 458
e 261 705
e 261 969
e 261 444
e 263 525
e 263 922
e 263 315
e 266 789
e 266 325
e 266 535
e 266 523
e 267 760
e 267 656
e 267 501
e 268 923
e 268 888
e 269 571
e 269 583
e 269 767
e 270 872
e 270 618
e 271 433
e 271 310
e 271 913
e 271 707
e 271 541
e 273 861
e 273 465
e 273 877
e 273 357
e 273 968
e 274 368
e 274 279
e 274 764
e 275 861
e 275 845
e 277 818
e 278 425
e 278 750
e 278 854
e 279 541
e 279 929
e 279 363
e 279 605
e 282 853
e 282 568
e 282 698
e 282 713
e 282 411
e 282 361
e 283 454
e 283 801
e 284 381
e 284 588
e 284 489
e 285 286
e 285 942
e 286 394
e 286 754
e 286 614
e 286 295
e 287 426
e 287 455
e 287 461
e 289 896
e 289 317
e 290 698
e 290 481
e 290 912
e 291 773
e 291 902
e 291 476
e 291 600
e 291 562
e 292 530
e 292 326
e 293 684
e 293 430
e 293 732
e 293 892
e 293 451
e 293 311
e 293 988
e 297 462
e 297 424
e 297 671
e 298 553
e 298 693
e 298 785
e 298 808
e 298 881
e 300 839
e 300 947
e 300 303
e 300 846
e 302 423
e 302 480
e 302 885
e 302 866
e 303 864
e 304 844
e 304 381
e 304 494
e 307 959
e 308 494
e 308 511
e 310 959
e 310 391
e 310 421
e 310 721
e 311 358
e 311 951
e 312 674
e 312 543
e 312 715
e 313 544
e 313 759
e 315 474
e 315 342
e 315 560
e 316 389
e 316 990
e 316 852
e 316 750
e 317 553
e 317 961
e 319 669
e 319 618
e 319 708
e 319 782
e 319 453
e 320 683
e 320 487
e 321 366
e 321 444
e 321 756
e 321 738
e 321 633
e 322 724
e 322 811
e 322 684
e 322 733
e 323 494
e 323 372
e 323 676
e 324 830
e 324 522
e 325 737
e 325 424
e 325 461
e 325 850
e 325 924
e 326 982
e 327 395
e 328 360
e 328 913
e 328 690
e 329 396
e 329 598
e 330 396
e 330 727
e 330 617
e 330 345
e 333 705
e 333 575
e 333 545
e 333 798
e 337 458
e 337 515
e 337 568
e 337 984
e 337 426
e 339 843
e 340 768
e 340 828
e 340 967
e 340 357
e 340 921
e 342 844
e 343 386
e 343 829
e 344 417
e 344 791
e 344 362
e 344 396
e 344 888
e 345 511
e 345 658
e 348 518
e 348 552
e 348 370
e 348 871
e 348 513
e 348 858
e 349 767
e 349 806
e 351 735
e 351 376
e 353 924
e 353 683
e 353 651
e 353 363
e 353 795
e 353 981
e 355 927
e 355 614
e 355 376
e 356 941
e 356 722
e 356 525
e 357 584
e 357 754
e 358 670
e 358 703
e 359 994
e 359 885
e 359 934
e 359 912
e 359 928
e 359 751
e 360 639
e 360 815
e 360 661
e 361 862
e 361 997
e 361 860
e 362 937
e 362 391
e 362 404
e 362 750
e 363 691
e 365 395
e 365 716
e 365 873
e 365 920
e 366 905
e 366 688
e 366 709
e 367 769
e 367 712
e 367 850
e 367 811
e 367 571
e 367 511
e 367 637
e 367 482
e 368 481
e 368 742
e 369 948
e 369 676
e 369 593
e 369 570
e 369 592
e 370 715
e 370 881
e 372 728
e 372 487
e 372 392
e 373 613
e 373 531
e 373 538
e 375 549
e 375 522
e 375 641
e 375 498
e 375 569
e 377 557
e 377 988
e 377 421
e 378 751
e 378 791
e 378 951
e 379 935
e 379 531
e 381 571
e 381 724
e 383 609
e 383 711
e 384 473
e 384 394
e 386 868
e 386 829
e 386 724
e 387 494
e 387 929
e 387 958
e 388 692
e 388 943
e 388 760
e 389 818
e 389 984
e 389 830
e 389 588
e 389 702
e 391 748
e 392 685
e 392 852
e 394 406
e 394 721
e 395 510
e 395 961
e 395 850
e 395 695
e 395 802
e 396 516
e 396 753
e 396 416
e 396 442
e 396 552
e 396 884
e 397 923
e 397 450
e 397 894
e 398 538
e 398 500
e 398 663
e 401 756
e 401 726
e 402 938
e 402 557
e 402 548
e 403 811
e 403 877
e 404 649
e 405 693
e 405 423
e 405 873
e 405 903
e 406 945
e 406 825
e 410 696
e 410 839
e 410 499
e 410 648
e 411 533
e 411 938
e 411 458
e 411 791
e 412 440
e 412 469
e 412 910
e 414 768
e 415 972
e 415 982
e 415 712
e 416 507
e 416 871
e 418 436
e 418 434
e 418 693
e 418 520
e 420 528
e 420 972
e 420 533
e 420 425
e 421 906
e 423 855
e 423 622
e 423 921
e 424 972
e 424 541
e 424 649
e 425 455
e 425 444
e 425 888
e 425 803
e 426 804
e 426 685
e 428 937
e 428 945
e 428 557
e 428 655
e 429 622
e 429 527
e 429 732
e 429 663
e 429 666
e 430 784
e 430 917
e 431 714
e 431 543
e 431 566
e 431 888
e 432 929
e 432 454
e 433 565
e 433 919
e 434 713
e 436 753
e 436 847
e 436 508
e 436 970
e 437 610
e 437 568
e 437 910
e 437 544
e 438 911
e 438 948
e 438 950
e 440 829
e 440 817
e 440 821
e 440 922
e 441 852
e 441 807
e 441 797
e 441 755
e 442 488
e 442 610
e 442 798
e 442 767
e 442 691
e 444 492
e 444 899
e 444 912
e 445 982
e 446 466
e 446 611
e 446 889
e 446 644
e 446 785
e 446 745
e 447 526
e 449 504
e 449 466
e 449 939
e 450 563
e 451 827
e 451 948
e 451 846
e 451 600
e 452 869
e 452 573
e 452 496
e 453 849
e 453 499
e 453 976
e 454 863
e 454 934
e 454 713
e 454 487
e 455 674
e 455 988
e 455 633
e 457 713
e 457 867
e 457 622
e 458 994
e 458 889
e 459 589
e 459 669
e 459 934
e 460 525
e 460 944
e 460 847
e 460 677
e 460 1000
e 460 685
e 461 566
e 461 872
e 461 905
e 461 577
e 462 577
e 463 582
e 463 508
e 464 511
e 464 955
e 464 831
e 464 650
e 464 992
e 465 872
e 465 712
e 466 859
e 466 639
e 467 541
e 467 567
e 467 690
e 468 621
e 468 525
e 468 689
e 469 773
e 469 552
e 470 543
e 470 621
e 472 480
e 472 772
e 473 639
e 473 578
e 474 756
e 474 494
e 476 907
e 477 994
e 479 647
e 479 993
e 479 683
e 479 908
e 480 892
e 480 763
e 480 910
e 480 725
e 481 774
e 481 837
e 482 703
e 483 772
e 483 984
e 483 955
e 483 943
e 485 685
e 485 567
e 485 982
e 486 648
e 486 645
e 486 795
e 486 827
e 487 732
e 487 717
e 487 496
e 488 667
e 488 863
e 488 580
e 491 955
e 492 932
e 494 734
e 497 600
e 498 809
e 498 675
e 498 871
e 498 504
e 499 725
e 499 847
e 500 972
e 500 703
e 501 797
e 501 917
e 502 690
e 502 651
e 504 859
e 504 782
e 505 628
e 505 822
e 507 782
e 507 715
e 507 779
e 508 961
e 509 910
e 509 894
e 509 862
e 510 824
e 510 897
e 510 580
e 511 870
e 511 684
e 511 697
e 513 882
e 513 989
e 515 998
e 515 714
e 515 535
e 515 747
e 516 830
e 516 693
e 516 871
e 516 884
e 517 811
e 518 614
e 518 556
e 519 944
e 519 861
e 519 686
e 519 733
e 520 707
e 522 713
e 523 709
e 523 911
e 523 544
e 524 635
e 524 866
e 526 898
e 526 617
e 527 529
e 527 687
e 528 942
e 528 772
e 529 933
e 529 853
e 529 859
e 530 897
e 530 762
e 531 696
e 532 873
e 532 923
e 533 984
e 535 933
e 535 625
e 537 605
e 538 771
e 541 868
e 541 864
e 543 850
e 543 693
e 543 809
e 544 942
e 544 972
e 544 981
e 545 950
e 545 899
e 548 578
e 548 845
e 548 588
e 548 694
e 549 862
e 550 798
e 550 698
e 550 919
e 551 797
e 551 992
e 551 598
e 552 627
e 553 612
e 553 935
e 553 963
e 553 614
e 553 760
e 554 873
e 554 633
e 556 850
e 560 568
e 560 703
e 560 632
e 562 737
e 562 929
e 563 579
e 563 639
e 565 763
e 565 899
e 566 721
e 568 593
e 568 725
e 568 702
e 569 831
e 569 870
e 569 742
e 569 774
e 570 971
e 570 807
e 570 757
e 571 983
e 572 928
e 572 972
e 572 626
e 572 774
e 573 986
e 573 857
e 573 968
e 573 673
e 574 913
e 574 799
e 574 876
e 574 885
e 574 700
e 574 774
e 575 969
e 575 745
e 575 829
e 576 960
e 576 873
e 576 840
e 577 954
e 577 932
e 578 881
e 578 600
e 579 854
e 579 724
e 579 993
e 579 640
e 580 847
e 580 742
e 582 652
e 582 892
e 582 809
e 583 860
e 584 942
e 584 905
e 584 621
e 586 799
e 586 962
e 586 921
e 589 721
e 589 955
e 590 698
e 590 884
e 592 666
e 593 753
e 593 621
e 593 666
e 594 812
e 596 714
e 596 726
e 597 891
e 598 823
e 600 965
e 605 794
e 609 791
e 609 921
e 610 713
e 611 983
e 611 854
e 611 825
e 612 930
e 612 671
e 613 768
e 613 953
e 614 953
e 617 621
e 619 687
e 619 971
e 619 781
e 621 963
e 621 754
e 623 835
e 623 817
e 623 865
e 625 725
e 625 998
e 626 680
e 626 982
e 627 684
e 627 658
e 628 664
e 628 638
e 628 742
e 630 855
e 631 882
e 631 968
e 632 827
e 632 798
e 633 820
e 633 850
e 633 930
e 633 638
e 633 927
e 635 638
e 637 986
e 638 912
e 638 648
e 639 678
e 639 651
e 639 779
e 640 717
e 641 804
e 643 928
e 644 930
e 645 683
e 647 757
e 647 733
e 649 959
e 651 726
e 652 727
e 652 963
e 655 958
e 656 701
e 656 738
e 660 959
e 660 745
e 661 728
e 661 853
e 663 752
e 663 977
e 663 667
e 664 785
e 665 877
e 665 837
e 666 899
e 669 670
e 669 675
e 670 701
e 670 766
e 670 724
e 671 677
e 673 775
e 675 865
e 676 984
e 676 892
e 677 680
e 678 950
e 678 927
e 680 918
e 681 794
e 684 898
e 685 764
e 685 833
e 686 873
e 686 750
e 687 705
e 687 847
e 688 798
e 688 967
e 689 701
e 689 892
e 690 911
e 690 881
e 690 742
e 690 795
e 690 708
e 690 830
e 692 891
e 693 862
e 694 981
e 694 962
e 695 823
e 695 752
e 695 708
e 696 943
e 697 942
e 698 756
e 700 820
e 702 795
e 703 947
e 703 990
e 705 827
e 707 932
e 708 730
e 709 939
e 709 970
e 709 710
e 711 840
e 712 734
e 712 986
e 712 779
e 713 799
e 715 969
e 715 830
e 717 923
e 717 940
e 717 945
e 718 852
e 718 997
e 718 859
e 718 959
e 724 768
e 726 940
e 727 769
e 728 812
e 730 781
e 730 877
e 730 941
e 732 977
e 733 967
e 735 960
e 735 954
e 738 899
e 742 822
e 742 960
e 743 855
e 743 874
e 745 804
e 745 958
e 747 840
e 748 806
e 749 921
e 749 810
e 750 751
e 750 945
e 752 791
e 754 824
e 755 804
e 756 766
e 757 876
e 762 860
e 763 889
e 764 771
e 765 815
e 765 942
e 766 994
e 766 823
e 767 857
e 768 888
e 769 976
e 770 794
e 770 785
e 770 937
e 772 902
e 773 801
e 773 792
e 775 827
e 779 959
e 782 794
e 784 870
e 785 943
e 789 816
e 792 839
e 792 807
e 797 944
e 797 933
e 798 877
e 801 872
e 802 896
e 804 814
e 807 927
e 807 852
e 808 865
e 809 864
e 809 866
e 810 843
e 814 861
e 814 830
e 815 902
e 816 831
e 816 853
e 820 962
e 820 907
e 821 922
e 822 917
e 825 910
e 825 884
e 828 831
e 828 874
e 829 945
e 831 917
e 831 976
e 835 851
e 835 917
e 837 994
e 839 969
e 842 871
e 843 983
e 845 885
e 846 972
e 846 965
e 848 873
e 849 988
e 849 938
e 850 855
e 850 922
e 851 858
e 851 884
e 853 894
e 858 870
e 859 954
e 859 903
e 860 914
e 861 976
e 862 911
e 862 903
e 863 990
e 864 970
e 864 968
e 866 950
e 871 990
e 876 944
e 880 944
e 882 923
e 883 976
e 885 943
e 889 940
e 892 951
e 897 950
e 898 961
e 905 982
e 906 917
e 907 940
e 912 994
e 914 975
e 917 994
e 918 944
e 919 965
e 919 977
e 920 959
e 922 988
e 922 966
e 933 968
e 945 984
e 948 982
e 950 989
e 960 988
e 965 967
e 971 988
e 972 977
e 982 998
