txt_Ins/graph-1000-205.txt
n 1000
e 0 168
e 0 931
e 0 496
e 0 128
e 1 816
e 1 220
e 1 43
e 1 338
e 1 176
e 1 971
e 2 868
e 2 905
e 2 451
e 3 440
e 3 357
e 3 680
e 3 164
e 3 273
e 4 822
e 4 475
e 4 365
e 4 596
e 4 53
e 4 695
e 4 929
e 4 425
e 6 711
e 6 820
e 6 289
e 6 780
e 6 486
e 6 570
e 6 200
e 7 968
e 7 788
e 7 807
e 8 248
e 8 517
e 8 725
e 8 326
e 9 238
e 9 708
e 9 861
e 9 479
e 9 570
e 10 579
e 10 720
e 10 709
e 10 845
e 11 176
e 11 529
e 11 24
e 12 949
e 12 543
e 12 402
e 13 893
e 13 929
e 13 318
e 13 783
e 13 284
e 13 366
e 13 153
e 15 139
e 15 145
e 15 33
e 15 257
e 16 269
e 16 936
e 16 38
e 16 292
e 16 463
e 16 957
e 17 327
e 17 203
e 17 841
e 18 173
e 18 721
e 18 157
e 18 629
e 18 593
e 19 94
e 19 291
e 19 637
e 19 315
e 19 92
e 19 591
e 19 81
e 19 429
e 19 907
e 21 622
e 21 808
e 21 196
e 22 717
e 22 876
e 22 278
e 22 999
e 23 682
e 23 999
e 23 327
e 24 183
e 24 413
e 24 137
e 24 229
e 24 318
e 25 374
e 25 581
e 25 727
e 27 976
e 27 467
e 27 339
e 27 622
e 27 383
e 27 365
e 28 729
e 28 756
e 28 247
e 28 446
e 29 344
e 29 636
e 29 77
e 29 131
e 29 734
e 29 842
e 31 294
e 31 259
e 31 378
e 31 156
e 32 759
e 32 758
e 32 517
e 32 729
e 33 343
e 33 983
e 33 318
e 34 356
e 34 933
e 34 616
e 34 372
e 34 462
e 35 611
e 35 613
e 35 644
e 35 824
e 35 967
e 35 128
e 35 272
e 35 748
e 36 567
e 36 416
e 36 420
e 36 620
e 36 646
e 36 774
e 37 765
e 37 213
e 37 425
e 38 519
e 38 194
e 38 867
e 39 303
e 39 66
e 39 405
e 40 348
e 40 996
e 40 702
e 41 839
e 41 741
e 41 673
e 43 916
e 43 50
e 43 721
e 43 144
e 45 752
e 45 73
e 45 531
e 45 808
e 46 276
e 46 189
e 46 754
e 46 597
e 46 672
e 46 571
e 46 227
e 46 512
e 47 917
e 47 522
e 47 55
e 47 851
e 48 954
e 48 983
e 48 902
e 48 304
e 49 226
e 49 98
e 49 680
e 49 269
e 49 770
e 50 183
e 50 612
e 50 896
e 50 124
e 50 617
e 50 425
e 52 534
e 52 341
e 52 175
e 52 649
e 52 651
e 52 802
e 53 761
e 53 816
e 53 991
e 53 143
e 53 946
e 53 149
e 54 382
e 54 62
e 54 104
e 54 679
e 55 493
e 55 532
e 55 796
e 55 452
e 55 954
e 57 926
e 57 301
e 57 500
e 57 242
e 57 372
e 57 742
e 57 800
e 58 953
e 58 181
e 58 195
e 58 841
e 59 440
e 59 258
e 59 733
e 59 934
e 59 686
e 60 180
e 60 131
e 60 717
e 60 488
e 61 917
e 61 579
e 61 485
e 61 962
e 61 921
e 62 950
e 62 716
e 63 704
e 63 649
e 63 488
e 65 704
e 65 338
e 65 555
e 66 521
e 66 467
e 67 974
e 67 591
e 67 176
e 67 859
e 67 143
e 67 473
e 68 469
e 68 647
e 68 458
e 69 229
e 69 718
e 69 923
e 69 226
e 69 687
e 70 577
e 70 551
e 70 747
e 70 764
e 70 718
e 70 651
e 72 109
e 72 500
e 72 890
e 73 958
e 73 573
e 75 380
e 75 566
e 75 847
e 76 257
e 76 93
e 76 449
e 76 827
e 76 891
e 76 324
e 76 578
e 76 267
e 76 965
e 77 299
e 77 440
e 79 451
e 79 721
e 79 462
e 79 163
e 79 770
e 80 487
e 80 479
e 80 544
e 80 467
e 80 907
e 81 113
e 81 311
e 81 354
e 81 380
e 82 992
e 82 149
e 82 247
e 82 796
e 82 582
e 82 993
e 84 962
e 84 822
e 84 773
e 84 528
e 85 479
e 85 218
e 85 476
e 85 816
e 87 498
e 87 564
e 87 510
e 87 445
e 88 875
e 88 495
e 88 618
e 89 269
e 89 695
e 89 146
e 89 365
e 89 773
e 89 866
e 91 262
e 91 431
e 91 595
e 92 309
e 92 401
e 92 748
e 93 742
e 93 843
e 93 445
e 93 815
e 94 813
e 94 709
e 94 798
e 95 158
e 95 814
e 95 282
e 96 116
e 96 548
e 96 631
e 96 244
e 96 642
e 97 315
e 97 231
e 97 141
e 98 168
e 98 690
e 98 362
e 98 596
e 99 274
e 99 508
e 99 368
e 99 126
e 100 836
e 100 881
e 100 817
e 100 612
e 101 690
e 101 486
e 101 360
e 103 146
e 103 969
e 103 847
e 103 798
e 103 659
e 103 383
e 104 255
e 104 523
e 104 294
e 104 952
e 104 567
e 104 796
e 105 800
e 105 689
e 105 666
e 105 501
e 107 506
e 107 461
e 107 400
e 107 857
e 107 376
e 107 194
e 107 297
e 108 315
e 108 733
e 108 729
e 108 168
e 108 796
e 108 236
e 109 444
e 109 876
e 109 561
e 109 297
e 109 220
e 110 446
e 110 213
e 110 274
e 110 388
e 110 562
e 110 721
e 111 147
e 111 553
e 111 645
e 111 991
e 111 748
e 112 630
e 112 879
e 112 680
e 112 311
e 112 319
e 113 288
e 113 928
e 113 410
e 113 639
e 113 323
e 114 964
e 114 724
e 114 573
e 116 707
e 116 320
e 116 770
e 116 715
e 116 509
e 116 940
e 116 801
e 117 292
e 117 709
e 117 234
e 117 224
e 120 176
e 120 454
e 120 999
e 120 432
e 121 324
e 121 943
e 121 292
e 121 168
e 121 936
e 124 975
e 124 976
e 124 149
e 124 390
e 126 791
e 126 927
e 126 654
e 126 882
e 126 521
e 126 627
e 127 718
e 127 933
e 127 473
e 127 967
e 127 737
e 128 396
e 128 413
e 129 942
e 129 696
e 129 481
e 129 543
e 129 386
e 130 824
e 130 207
e 130 561
e 130 830
e 130 537
e 131 805
e 131 278
e 131 419
e 135 734
e 135 643
e 135 444
e 136 498
e 136 456
e 136 299
e 136 772
e 136 592
e 136 276
e 137 642
e 137 710
e 137 771
e 138 790
e 138 343
e 138 813
e 138 341
e 138 700
e 139 180
e 139 838
e 139 901
e 139 233
e 139 342
e 140 516
e 140 567
e 140 327
e 141 868
e 141 419
e 143 822
e 143 456
e 143 817
e 143 887
e 143 907
e 144 152
e 144 301
e 144 328
e 145 960
e 145 276
e 145 371
e 145 458
e 145 746
e 146 958
e 146 864
e 147 741
e 147 512
e 147 928
e 149 481
e 149 770
e 150 207
e 150 960
e 150 302
e 150 449
e 151 659
e 151 248
e 151 856
e 151 708
e 151 867
e 151 756
e 152 809
e 152 440
e 153 690
e 153 764
e 153 348
e 155 286
e 155 416
e 155 836
e 156 292
e 156 203
e 156 241
e 156 344
e 157 599
e 157 700
e 158 556
e 158 746
e 160 471
e 160 736
e 160 449
e 160 663
e 160 627
e 160 669
e 160 648
e 161 182
e 161 285
e 161 871
e 162 699
e 162 239
e 162 204
e 162 526
e 163 338
e 163 306
e 164 634
e 164 481
e 164 944
e 164 573
e 164 486
e 164 917
e 165 988
e 165 696
e 165 536
e 165 276
e 168 662
e 168 574
e 168 227
e 170 561
e 170 350
e 170 758
e 170 870
e 172 425
e 172 431
e 172 873
e 173 684
e 173 871
e 174 375
e 174 401
e 174 882
e 174 378
e 175 762
e 175 234
e 175 405
e 175 922
e 175 733
e 176 809
e 176 664
e 176 637
e 176 943
e 177 967
e 177 443
e 177 183
e 177 283
e 178 655
e 178 832
e 178 974
e 179 811
e 179 388
e 179 304
e 180 724
e 181 642
e 181 802
e 181 486
e 182 692
e 182 440
e 182 699
e 183 234
e 183 245
e 183 587
e 184 220
e 184 901
e 184 428
e 187 220
e 187 989
e 187 207
e 187 650
e 187 938
e 188 532
e 188 907
e 188 768
e 189 867
e 189 307
e 189 901
e 189 832
e 189 394
e 189 277
e 190 374
e 190 550
e 190 416
e 190 826
e 190 932
e 190 562
e 192 532
e 192 772
e 192 704
e 192 865
e 193 465
e 193 852
e 193 504
e 194 686
e 194 429
e 195 516
e 195 387
e 195 241
e 196 229
e 196 670
e 196 715
e 200 952
e 200 243
e 202 691
e 202 761
e 202 741
e 202 252
e 203 645
e 203 913
e 203 387
e 203 826
e 203 733
e 203 501
e 204 866
e 204 445
e 204 854
e 204 918
e 204 852
e 204 830
e 204 824
e 206 212
e 206 593
e 206 233
e 206 449
e 207 374
e 207 941
e 208 258
e 208 286
e 208 433
e 208 561
e 208 429
e 208 573
e 208 645
e 208 510
e 209 476
e 209 376
e 209 965
e 210 746
e 210 259
e 210 753
e 212 564
e 212 895
e 213 481
e 213 339
e 213 936
e 213 391
e 215 562
e 215 566
e 215 927
e 216 826
e 216 692
e 216 721
e 218 325
e 218 570
e 218 250
e 218 958
e 218 437
e 218 919
e 219 312
e 219 575
e 219 453
e 219 727
e 219 496
e 219 514
e 220 917
e 220 481
e 220 462
e 220 879
e 221 798
e 221 459
e 221 304
e 221 813
e 221 841
e 223 566
e 223 322
e 223 530
e 224 276
e 224 762
e 224 299
e 225 416
e 225 822
e 225 449
e 225 267
e 225 936
e 226 888
e 226 324
e 226 356
e 227 306
e 227 479
e 227 823
e 227 444
e 229 248
e 229 634
e 229 589
e 229 771
e 231 957
e 231 487
e 231 358
e 231 866
e 231 239
e 233 734
e 233 613
e 233 649
e 233 771
e 233 283
e 234 966
e 234 522
e 234 242
e 234 536
e 234 297
e 236 469
e 236 464
e 236 724
e 236 814
e 238 699
e 238 490
e 238 326
e 238 809
e 239 393
e 239 616
e 239 664
e 239 391
e 240 778
e 240 325
e 240 657
e 240 634
e 241 893
e 241 890
e 241 282
e 242 491
e 242 944
e 243 946
e 243 365
e 243 490
e 244 798
e 244 495
e 244 322
e 244 484
e 244 490
e 245 409
e 245 954
e 245 324
e 246 597
e 246 283
e 246 259
e 247 479
e 247 312
e 247 429
e 247 454
e 247 350
e 247 917
e 250 491
e 250 433
e 250 506
e 250 273
e 251 640
e 251 525
e 251 547
e 252 814
e 252 753
e 253 564
e 253 763
e 253 927
e 255 901
e 255 630
e 255 479
e 255 912
e 255 571
e 255 458
e 257 517
e 257 567
e 258 748
e 258 436
e 258 604
e 258 299
e 259 981
e 259 369
e 259 403
e 259 834
e 260 629
e 260 731
e 260 457
e 260 704
e 260 968
e 260 443
e 262 524
e 262 921
e 262 314
e 265 788
e 265 324
e 265 534
e 265 522
e 266 759
e 266 655
e 266 500
e 267 922
e 267 887
e 268 570
e 268 582
e 268 766
e 269 871
e 269 617
e 270 432
e 270 309
e 270 912
e 270 706
e 270 540
e 272 860
e 272 464
e 272 876
e 272 356
e 272 967
e 273 367
e 273 278
e 273 763
e 274 860
e 274 844
e 276 817
e 277 424
e 277 749
e 277 853
e 278 540
e 278 928
e 278 362
e 278 604
e 281 852
e 281 567
e 281 697
e 281 712
e 281 410
e 281 360
e 282 453
e 282 800
e 283 380
e 283 587
e 283 488
e 284 285
e 284 941
e 285 393
e 285 753
e 285 613
e 285 294
e 286 425
e 286 454
e 286 460
e 288 895
e 288 316
e 289 697
e 289 480
e 289 911
e 290 772
e 290 901
e 290 475
e 290 599
e 290 561
e 291 529
e 291 325
e 292 683
e 292 429
e 292 731
e 292 891
e 292 450
e 292 310
e 292 987
e 296 461
e 296 423
e 296 670
e 297 552
e 297 692
e 297 784
e 297 807
e 297 880
e 299 838
e 299 946
e 299 302
e 299 845
e 301 422
e 301 479
e 301 884
e 301 865
e 302 863
e 303 843
e 303 380
e 303 493
e 306 958
e 307 493
e 307 510
e 309 958
e 309 390
e 309 420
e 309 720
e 310 357
e 310 950
e 311 673
e 311 542
e 311 714
e 312 543
e 312 758
e 314 473
e 314 341
e 314 559
e 315 388
e 315 989
e 315 851
e 315 749
e 316 552
e 316 960
e 318 668
e 318 617
e 318 707
e 318 781
e 318 452
e 319 682
e 319 486
e 320 365
e 320 443
e 320 755
e 320 737
e 320 632
e 321 723
e 321 810
e 321 683
e 321 732
e 322 493
e 322 371
e 322 675
e 323 829
e 323 521
e 324 736
e 324 423
e 324 460
e 324 849
e 324 923
e 325 981
e 326 394
e 327 359
e 327 912
e 327 689
e 328 395
e 328 597
e 329 395
e 329 726
e 329 616
e 329 344
e 332 704
e 332 574
e 332 544
e 332 797
e 336 457
e 336 514
e 336 567
e 336 983
e 336 425
e 338 842
e 339 767
e 339 827
e 339 966
e 339 356
e 339 920
e 341 843
e 342 385
e 342 828
e 343 416
e 343 790
e 343 361
e 343 395
e 343 887
e 344 510
e 344 657
e 347 517
e 347 551
e 347 369
e 347 870
e 347 512
e 347 857
e 348 766
e 348 805
e 350 734
e 350 375
e 352 923
e 352 682
e 352 650
e 352 362
e 352 794
e 352 980
e 354 926
e 354 613
e 354 375
e 355 940
e 355 721
e 355 524
e 356 583
e 356 753
e 357 669
e 357 702
e 358 993
e 358 884
e 358 933
e 358 911
e 358 927
e 358 750
e 359 638
e 359 814
e 359 660
e 360 861
e 360 996
e 360 859
e 361 936
e 361 390
e 361 403
e 361 749
e 362 690
e 364 394
e 364 715
e 364 872
e 364 919
e 365 904
e 365 687
e 365 708
e 366 768
e 366 711
e 366 849
e 366 810
e 366 570
e 366 510
e 366 636
e 366 481
e 367 480
e 367 741
e 368 947
e 368 675
e 368 592
e 368 569
e 368 591
e 369 714
e 369 880
e 371 727
e 371 486
e 371 391
e 372 612
e 372 530
e 372 537
e 374 548
e 374 521
e 374 640
e 374 497
e 374 568
e 376 556
e 376 987
e 376 420
e 377 750
e 377 790
e 377 950
e 378 934
e 378 530
e 380 570
e 380 723
e 382 608
e 382 710
e 383 472
e 383 393
e 385 867
e 385 828
e 385 723
e 386 493
e 386 928
e 386 957
e 387 691
e 387 942
e 387 759
e 388 817
e 388 983
e 388 829
e 388 587
e 388 701
e 390 747
e 391 684
e 391 851
e 393 405
e 393 720
e 394 509
e 394 960
e 394 849
e 394 694
e 394 801
e 395 515
e 395 752
e 395 415
e 395 441
e 395 551
e 395 883
e 396 922
e 396 449
e 396 893
e 397 537
e 397 499
e 397 662
e 400 755
e 400 725
e 401 937
e 401 556
e 401 547
e 402 810
e 402 876
e 403 648
e 404 692
e 404 422
e 404 872
e 404 902
e 405 944
e 405 824
e 409 695
e 409 838
e 409 498
e 409 647
e 410 532
e 410 937
e 410 457
e 410 790
e 411 439
e 411 468
e 411 909
e 413 767
e 414 971
e 414 981
e 414 711
e 415 506
e 415 870
e 417 435
e 417 433
e 417 692
e 417 519
e 419 527
e 419 971
e 419 532
e 419 424
e 420 905
e 422 854
e 422 621
e 422 920
e 423 971
e 423 540
e 423 648
e 424 454
e 424 443
e 424 887
e 424 802
e 425 803
e 425 684
e 427 936
e 427 944
e 427 556
e 427 654
e 428 621
e 428 526
e 428 731
e 428 662
e 428 665
e 429 783
e 429 916
e 430 713
e 430 542
e 430 565
e 430 887
e 431 928
e 431 453
e 432 564
e 432 918
e 433 712
e 435 752
e 435 846
e 435 507
e 435 969
e 436 609
e 436 567
e 436 909
e 436 543
e 437 910
e 437 947
e 437 949
e 439 828
e 439 816
e 439 820
e 439 921
e 440 851
e 440 806
e 440 796
e 440 754
e 441 487
e 441 609
e 441 797
e 441 766
e 441 690
e 443 491
e 443 898
e 443 911
e 444 981
e 445 465
e 445 610
e 445 888
e 445 643
e 445 784
e 445 744
e 446 525
e 448 503
e 448 465
e 448 938
e 449 562
e 450 826
e 450 947
e 450 845
e 450 599
e 451 868
e 451 572
e 451 495
e 452 848
e 452 498
e 452 975
e 453 862
e 453 933
e 453 712
e 453 486
e 454 673
e 454 987
e 454 632
e 456 712
e 456 866
e 456 621
e 457 993
e 457 888
e 458 588
e 458 668
e 458 933
e 459 524
e 459 943
e 459 846
e 459 676
e 459 999
e 459 684
e 460 565
e 460 871
e 460 904
e 460 576
e 461 576
e 462 581
e 462 507
e 463 510
e 463 954
e 463 830
e 463 649
e 463 991
e 464 871
e 464 711
e 465 858
e 465 638
e 466 540
e 466 566
e 466 689
e 467 620
e 467 524
e 467 688
e 468 772
e 468 551
e 469 542
e 469 620
e 471 479
e 471 771
e 472 638
e 472 577
e 473 755
e 473 493
e 475 906
e 476 993
e 478 646
e 478 992
e 478 682
e 478 907
e 479 891
e 479 762
e 479 909
e 479 724
e 480 773
e 480 836
e 481 702
e 482 771
e 482 983
e 482 954
e 482 942
e 484 684
e 484 566
e 484 981
e 485 647
e 485 644
e 485 794
e 485 826
e 486 731
e 486 716
e 486 495
e 487 666
e 487 862
e 487 579
e 490 954
e 491 931
e 493 733
e 496 599
e 497 808
e 497 674
e 497 870
e 497 503
e 498 724
e 498 846
e 499 971
e 499 702
e 500 796
e 500 916
e 501 689
e 501 650
e 503 858
e 503 781
e 504 627
e 504 821
e 506 781
e 506 714
e 506 778
e 507 960
e 508 909
e 508 893
e 508 861
e 509 823
e 509 896
e 509 579
e 510 869
e 510 683
e 510 696
e 512 881
e 512 988
e 514 997
e 514 713
e 514 534
e 514 746
e 515 829
e 515 692
e 515 870
e 515 883
e 516 810
e 517 613
e 517 555
e 518 943
e 518 860
e 518 685
e 518 732
e 519 706
e 521 712
e 522 708
e 522 910
e 522 543
e 523 634
e 523 865
e 525 897
e 525 616
e 526 528
e 526 686
e 527 941
e 527 771
e 528 932
e 528 852
e 528 858
e 529 896
e 529 761
e 530 695
e 531 872
e 531 922
e 532 983
e 534 932
e 534 624
e 536 604
e 537 770
e 540 867
e 540 863
e 542 849
e 542 692
e 542 808
e 543 941
e 543 971
e 543 980
e 544 949
e 544 898
e 547 577
e 547 844
e 547 587
e 547 693
e 548 861
e 549 797
e 549 697
e 549 918
e 550 796
e 550 991
e 550 597
e 551 626
e 552 611
e 552 934
e 552 962
e 552 613
e 552 759
e 553 872
e 553 632
e 555 849
e 559 567
e 559 702
e 559 631
e 561 736
e 561 928
e 562 578
e 562 638
e 564 762
e 564 898
e 565 720
e 567 592
e 567 724
e 567 701
e 568 830
e 568 869
e 568 741
e 568 773
e 569 970
e 569 806
e 569 756
e 570 982
e 571 927
e 571 971
e 571 625
e 571 773
e 572 985
e 572 856
e 572 967
e 572 672
e 573 912
e 573 798
e 573 875
e 573 884
e 573 699
e 573 773
e 574 968
e 574 744
e 574 828
e 575 959
e 575 872
e 575 839
e 576 953
e 576 931
e 577 880
e 577 599
e 578 853
e 578 723
e 578 992
e 578 639
e 579 846
e 579 741
e 581 651
e 581 891
e 581 808
e 582 859
e 583 941
e 583 904
e 583 620
e 585 798
e 585 961
e 585 920
e 588 720
e 588 954
e 589 697
e 589 883
e 591 665
e 592 752
e 592 620
e 592 665
e 593 811
e 595 713
e 595 725
e 596 890
e 597 822
e 599 964
e 604 793
e 608 790
e 608 920
e 609 712
e 610 982
e 610 853
e 610 824
e 611 929
e 611 670
e 612 767
e 612 952
e 613 952
e 616 620
e 618 686
e 618 970
e 618 780
e 620 962
e 620 753
e 622 834
e 622 816
e 622 864
e 624 724
e 624 997
e 625 679
e 625 981
e 626 683
e 626 657
e 627 663
e 627 637
e 627 741
e 629 854
e 630 881
e 630 967
e 631 826
e 631 797
e 632 819
e 632 849
e 632 929
e 632 637
e 632 926
e 634 637
e 636 985
e 637 911
e 637 647
e 638 677
e 638 650
e 638 778
e 639 716
e 640 803
e 642 927
e 643 929
e 644 682
e 646 756
e 646 732
e 648 958
e 650 725
e 651 726
e 651 962
e 654 957
e 655 700
e 655 737
e 659 958
e 659 744
e 660 727
e 660 852
e 662 751
e 662 976
e 662 666
e 663 784
e 664 876
e 664 836
e 665 898
e 668 669
e 668 674
e 669 700
e 669 765
e 669 723
e 670 676
e 672 774
e 674 864
e 675 983
e 675 891
e 676 679
e 677 949
e 677 926
e 679 917
e 680 793
e 683 897
e 684 763
e 684 832
e 685 872
e 685 749
e 686 704
e 686 846
e 687 797
e 687 966
e 688 700
e 688 891
e 689 910
e 689 880
e 689 741
e 689 794
e 689 707
e 689 829
e 691 890
e 692 861
e 693 980
e 693 961
e 694 822
e 694 751
e 694 707
e 695 942
e 696 941
e 697 755
e 699 819
e 701 794
e 702 946
e 702 989
e 704 826
e 706 931
e 707 729
e 708 938
e 708 969
e 708 709
e 710 839
e 711 733
e 711 985
e 711 778
e 712 798
e 714 968
e 714 829
e 716 922
e 716 939
e 716 944
e 717 851
e 717 996
e 717 858
e 717 958
e 723 767
e 725 939
e 726 768
e 727 811
e 729 780
e 729 876
e 729 940
e 731 976
e 732 966
e 734 959
e 734 953
e 737 898
e 741 821
e 741 959
e 742 854
e 742 873
e 744 803
e 744 957
e 746 839
e 747 805
e 748 920
e 748 809
e 749 750
e 749 944
e 751 790
e 753 823
e 754 803
e 755 765
e 756 875
e 761 859
e 762 888
e 763 770
e 764 814
e 764 941
e 765 993
e 765 822
e 766 856
e 767 887
e 768 975
e 769 793
e 769 784
e 769 936
e 771 901
e 772 800
e 772 791
e 774 826
e 778 958
e 781 793
e 783 869
e 784 942
e 788 815
e 791 838
e 791 806
e 796 943
e 796 932
e 797 876
e 800 871
e 801 895
e 803 813
e 806 926
e 806 851
e 807 864
e 808 863
e 808 865
e 809 842
e 813 860
e 813 829
e 814 901
e 815 830
e 815 852
e 819 961
e 819 906
e 820 921
e 821 916
e 824 909
e 824 883
e 827 830
e 827 873
e 828 944
e 830 916
e 830 975
e 834 850
e 834 916
e 836 993
e 838 968
e 841 870
e 842 982
e 844 884
e 845 971
e 845 964
e 847 872
e 848 987
e 848 937
e 849 854
e 849 921
e 850 857
e 850 883
e 852 893
e 857 869
e 858 953
e 858 902
e 859 913
e 860 975
e 861 910
e 861 902
e 862 989
e 863 969
e 863 967
e 865 949
e 870 989
e 875 943
e 879 943
e 881 922
e 882 975
e 884 942
e 888 939
e 891 950
e 896 949
e 897 960
e 904 981
e 905 916
e 906 939
e 911 993
e 913 974
e 916 993
e 917 943
e 918 964
e 918 976
e 919 958
e 921 987
e 921 965
e 932 967
e 944 983
e 947 981
e 949 988
e 959 987
e 964 966
e 970 987
e 971 976
e 981 997
